
  22   10
  10   10   10   10   10   10   10   10   10   10

   0   0   0   0   0   0   0   0   0   0   0  17 2 3 4 8 9 10 11 12 13 14 15 16 17 18 19 20 21 
   5   0   0   0   0   0   0   0   0  10   0   3 7 6 5 
   2   0   0   0   0   0   0   0   0  10   0   1 6 
   5   0   0  10   0   0   0   0   0   0   0   1 5 
   6   0  10   0   0   0   0   0   0   0   0   1 22
   5   0   0   0   0  10   0   0   0   0   0   1 22
   9   0   0   0   0   0   0   0   0  10   0   1 22
   1   0   0   0   0  10   0   0   0   0   0   1 22
  10   0   0   0   0   0   0  10   0   0   0   1 22
   6   0  10   0   0   0   0   0   0   0   0   1 22
   8   0   0  10   0   0   0   0   0   0   0   1 22
   5   0   0  10   0   0   0   0   0   0   0   1 22
   1   0   0   0   0  10   0   0   0   0   0   1 22
  10   0   0   0   0  10   0   0   0   0   0   1 22
   8  10   0   0   0   0   0   0   0   0   0   1 22
   2   0   0   0   0  10   0   0   0   0   0   1 22
   7   0   0   0  10   0   0   0   0   0   0   1 22
   6   0   0  10   0   0   0   0   0   0   0   1 22
   2   0   0   0  10   0   0   0   0   0   0   1 22
   1  10   0   0   0   0   0   0   0   0   0   1 22
   8   0   0  10   0   0   0   0   0   0   0   1 22
   0   0   0   0   0   0   0   0   0   0   0   0 
